p cnf 36 250
8 0
9 0
-11 0
-13 0
14 0
-23 0
-24 0
26 0
-31 0
34 0
1 2 3 0
-1 -2 -3 0
2 3 4 0
-2 -3 -4 0
3 4 5 0
-3 -4 -5 0
4 5 6 0
-4 -5 -6 0
7 8 9 0
-7 -8 -9 0
8 9 10 0
-8 -9 -10 0
9 10 11 0
-9 -10 -11 0
10 11 12 0
-10 -11 -12 0
13 14 15 0
-13 -14 -15 0
14 15 16 0
-14 -15 -16 0
15 16 17 0
-15 -16 -17 0
16 17 18 0
-16 -17 -18 0
19 20 21 0
-19 -20 -21 0
20 21 22 0
-20 -21 -22 0
21 22 23 0
-21 -22 -23 0
22 23 24 0
-22 -23 -24 0
25 26 27 0
-25 -26 -27 0
26 27 28 0
-26 -27 -28 0
27 28 29 0
-27 -28 -29 0
28 29 30 0
-28 -29 -30 0
31 32 33 0
-31 -32 -33 0
32 33 34 0
-32 -33 -34 0
33 34 35 0
-33 -34 -35 0
34 35 36 0
-34 -35 -36 0
1 7 13 0
-1 -7 -13 0
7 13 19 0
-7 -13 -19 0
13 19 25 0
-13 -19 -25 0
19 25 31 0
-19 -25 -31 0
2 8 14 0
-2 -8 -14 0
8 14 20 0
-8 -14 -20 0
14 20 26 0
-14 -20 -26 0
20 26 32 0
-20 -26 -32 0
3 9 15 0
-3 -9 -15 0
9 15 21 0
-9 -15 -21 0
15 21 27 0
-15 -21 -27 0
21 27 33 0
-21 -27 -33 0
4 10 16 0
-4 -10 -16 0
10 16 22 0
-10 -16 -22 0
16 22 28 0
-16 -22 -28 0
22 28 34 0
-22 -28 -34 0
5 11 17 0
-5 -11 -17 0
11 17 23 0
-11 -17 -23 0
17 23 29 0
-17 -23 -29 0
23 29 35 0
-23 -29 -35 0
6 12 18 0
-6 -12 -18 0
12 18 24 0
-12 -18 -24 0
18 24 30 0
-18 -24 -30 0
24 30 36 0
-24 -30 -36 0
1 2 -3 4 5 -6 0 
7 8 -9 10 11 -12 0 
13 14 -15 16 17 -18 0 
19 20 -21 22 23 -24 0 
25 26 -27 28 29 -30 0 
31 32 -33 34 35 -36 0 
1 7 -13 19 25 -31 0 
2 8 -14 20 26 -32 0 
3 9 -15 21 27 -33 0 
4 10 -16 22 28 -34 0 
5 11 -17 23 29 -35 0 
6 12 -18 24 30 -36 0 
1 2 -3 4 -5 6 0 
7 8 -9 10 -11 12 0 
13 14 -15 16 -17 18 0 
19 20 -21 22 -23 24 0 
25 26 -27 28 -29 30 0 
31 32 -33 34 -35 36 0 
1 7 -13 19 -25 31 0 
2 8 -14 20 -26 32 0 
3 9 -15 21 -27 33 0 
4 10 -16 22 -28 34 0 
5 11 -17 23 -29 35 0 
6 12 -18 24 -30 36 0 
1 2 -3 -4 5 6 0 
7 8 -9 -10 11 12 0 
13 14 -15 -16 17 18 0 
19 20 -21 -22 23 24 0 
25 26 -27 -28 29 30 0 
31 32 -33 -34 35 36 0 
1 7 -13 -19 25 31 0 
2 8 -14 -20 26 32 0 
3 9 -15 -21 27 33 0 
4 10 -16 -22 28 34 0 
5 11 -17 -23 29 35 0 
6 12 -18 -24 30 36 0 
1 -2 3 4 -5 6 0 
7 -8 9 10 -11 12 0 
13 -14 15 16 -17 18 0 
19 -20 21 22 -23 24 0 
25 -26 27 28 -29 30 0 
31 -32 33 34 -35 36 0 
1 -7 13 19 -25 31 0 
2 -8 14 20 -26 32 0 
3 -9 15 21 -27 33 0 
4 -10 16 22 -28 34 0 
5 -11 17 23 -29 35 0 
6 -12 18 24 -30 36 0 
1 -2 3 -4 5 6 0 
7 -8 9 -10 11 12 0 
13 -14 15 -16 17 18 0 
19 -20 21 -22 23 24 0 
25 -26 27 -28 29 30 0 
31 -32 33 -34 35 36 0 
1 -7 13 -19 25 31 0 
2 -8 14 -20 26 32 0 
3 -9 15 -21 27 33 0 
4 -10 16 -22 28 34 0 
5 -11 17 -23 29 35 0 
6 -12 18 -24 30 36 0 
1 -2 -3 4 -5 -6 0 
7 -8 -9 10 -11 -12 0 
13 -14 -15 16 -17 -18 0 
19 -20 -21 22 -23 -24 0 
25 -26 -27 28 -29 -30 0 
31 -32 -33 34 -35 -36 0 
1 -7 -13 19 -25 -31 0 
2 -8 -14 20 -26 -32 0 
3 -9 -15 21 -27 -33 0 
4 -10 -16 22 -28 -34 0 
5 -11 -17 23 -29 -35 0 
6 -12 -18 24 -30 -36 0 
-1 2 3 -4 5 6 0 
-7 8 9 -10 11 12 0 
-13 14 15 -16 17 18 0 
-19 20 21 -22 23 24 0 
-25 26 27 -28 29 30 0 
-31 32 33 -34 35 36 0 
-1 7 13 -19 25 31 0 
-2 8 14 -20 26 32 0 
-3 9 15 -21 27 33 0 
-4 10 16 -22 28 34 0 
-5 11 17 -23 29 35 0 
-6 12 18 -24 30 36 0 
-1 2 -3 4 -5 -6 0 
-7 8 -9 10 -11 -12 0 
-13 14 -15 16 -17 -18 0 
-19 20 -21 22 -23 -24 0 
-25 26 -27 28 -29 -30 0 
-31 32 -33 34 -35 -36 0 
-1 7 -13 19 -25 -31 0 
-2 8 -14 20 -26 -32 0 
-3 9 -15 21 -27 -33 0 
-4 10 -16 22 -28 -34 0 
-5 11 -17 23 -29 -35 0 
-6 12 -18 24 -30 -36 0 
-1 2 -3 -4 5 -6 0 
-7 8 -9 -10 11 -12 0 
-13 14 -15 -16 17 -18 0 
-19 20 -21 -22 23 -24 0 
-25 26 -27 -28 29 -30 0 
-31 32 -33 -34 35 -36 0 
-1 7 -13 -19 25 -31 0 
-2 8 -14 -20 26 -32 0 
-3 9 -15 -21 27 -33 0 
-4 10 -16 -22 28 -34 0 
-5 11 -17 -23 29 -35 0 
-6 12 -18 -24 30 -36 0 
-1 -2 3 4 -5 -6 0 
-7 -8 9 10 -11 -12 0 
-13 -14 15 16 -17 -18 0 
-19 -20 21 22 -23 -24 0 
-25 -26 27 28 -29 -30 0 
-31 -32 33 34 -35 -36 0 
-1 -7 13 19 -25 -31 0 
-2 -8 14 20 -26 -32 0 
-3 -9 15 21 -27 -33 0 
-4 -10 16 22 -28 -34 0 
-5 -11 17 23 -29 -35 0 
-6 -12 18 24 -30 -36 0 
-1 -2 3 -4 5 -6 0 
-7 -8 9 -10 11 -12 0 
-13 -14 15 -16 17 -18 0 
-19 -20 21 -22 23 -24 0 
-25 -26 27 -28 29 -30 0 
-31 -32 33 -34 35 -36 0 
-1 -7 13 -19 25 -31 0 
-2 -8 14 -20 26 -32 0 
-3 -9 15 -21 27 -33 0 
-4 -10 16 -22 28 -34 0 
-5 -11 17 -23 29 -35 0 
-6 -12 18 -24 30 -36 0 
-1 -2 3 -4 -5 6 0 
-7 -8 9 -10 -11 12 0 
-13 -14 15 -16 -17 18 0 
-19 -20 21 -22 -23 24 0 
-25 -26 27 -28 -29 30 0 
-31 -32 33 -34 -35 36 0 
-1 -7 13 -19 -25 31 0 
-2 -8 14 -20 -26 32 0 
-3 -9 15 -21 -27 33 0 
-4 -10 16 -22 -28 34 0 
-5 -11 17 -23 -29 35 0 
-6 -12 18 -24 -30 36 0 
